400, 40585
398, 398
96, 96
78, 78
316, 316
154, 154
280, 280
100, 100
52, 52
374, 374
62, 62
242, 242
78, 78
148, 148
266, 266
384, 384
254, 254
334, 334
240, 240
188, 188
188, 188
32, 32
210, 210
348, 348
316, 316
102, 102
354, 354
274, 274
142, 142
178, 178
372, 372
394, 394
66, 66
50, 50
256, 256
300, 300
204, 204
52, 52
358, 358
256, 256
348, 348
168, 168
398, 398
194, 194
256, 256
396, 396
326, 326
352, 352
198, 198
106, 106
348, 348
240, 240
184, 184
396, 396
188, 188
282, 282
110, 110
150, 150
80, 80
100, 100
118, 118
282, 282
118, 118
288, 288
130, 130
20, 20
382, 382
316, 316
198, 198
398, 398
276, 276
84, 84
86, 86
84, 84
290, 290
394, 394
286, 286
212, 212
360, 360
144, 144
320, 320
192, 192
294, 294
336, 336
164, 164
258, 258
180, 180
346, 346
274, 274
398, 398
262, 262
360, 360
108, 108
220, 220
224, 224
222, 222
198, 198
42, 42
126, 126
338, 338
370, 370
270, 270
370, 370
374, 374
326, 326
368, 368
66, 66
142, 142
144, 144
188, 188
180, 180
338, 338
384, 384
370, 370
308, 308
210, 210
370, 370
120, 120
322, 322
98, 98
206, 206
60, 60
280, 280
336, 336
120, 120
394, 394
72, 72
8, 8
178, 178
38, 38
164, 164
20, 20
210, 210
86, 86
70, 70
296, 296
176, 176
256, 256
50, 50
66, 66
6, 6
268, 268
128, 128
186, 186
264, 264
198, 198
58, 58
234, 234
6, 6
368, 368
358, 358
324, 324
308, 308
314, 314
266, 266
388, 388
26, 26
56, 56
192, 192
4, 4
252, 252
142, 142
306, 306
388, 388
108, 108
284, 284
310, 310
352, 352
166, 166
264, 264
34, 34
170, 170
102, 102
372, 372
142, 142
62, 62
226, 226
380, 380
220, 220
248, 248
374, 374
272, 272
40, 40
328, 328
108, 108
136, 136
114, 114
276, 276
392, 392
234, 234
142, 142
212, 212
292, 292
2, 2
336, 336
136, 136
338, 338
4, 4
130, 130
18, 18
302, 302
12, 12
266, 266
168, 168
340, 340
268, 268
68, 68
368, 368
76, 76
14, 14
76, 76
166, 166
388, 388
268, 268
8, 8
110, 110
196, 196
126, 126
306, 306
168, 168
360, 360
36, 36
324, 324
140, 140
272, 272
26, 26
318, 318
338, 338
170, 170
96, 96
128, 128
354, 354
186, 186
78, 78
44, 44
228, 228
292, 292
278, 278
116, 116
306, 306
396, 396
218, 218
32, 32
162, 162
164, 164
246, 246
94, 94
138, 138
86, 86
236, 236
128, 128
16, 16
346, 346
234, 234
264, 264
16, 16
38, 38
122, 122
368, 368
312, 312
100, 100
100, 100
198, 198
354, 354
16, 16
132, 132
188, 188
48, 48
74, 74
38, 38
260, 260
126, 126
120, 120
8, 8
268, 268
70, 70
12, 12
2, 2
60, 60
324, 324
18, 18
24, 24
12, 12
388, 388
212, 212
48, 48
14, 14
68, 68
216, 216
228, 228
302, 302
220, 220
394, 394
376, 376
388, 388
24, 24
244, 244
148, 148
174, 174
222, 222
136, 136
16, 16
392, 392
338, 338
208, 208
250, 250
132, 132
368, 368
30, 30
88, 88
244, 244
300, 300
270, 270
278, 278
158, 158
148, 148
378, 378
346, 346
184, 184
254, 254
186, 186
76, 76
344, 344
52, 52
58, 58
298, 298
336, 336
376, 376
24, 24
94, 94
40, 40
374, 374
294, 294
248, 248
98, 98
340, 340
332, 332
6, 6
250, 250
296, 296
160, 160
296, 296
174, 174
344, 344
300, 300
40, 40
88, 88
358, 358
14, 14
140, 140
106, 106
80, 80
224, 224
6, 6
372, 372
2, 2
316, 316
388, 388
160, 160
70, 70
18, 18
166, 166
300, 300
312, 312
308, 308
306, 306
22, 22
170, 170
366, 366
60, 60
84, 84
82, 82
196, 196
22, 22
42, 42
298, 298
370, 370
390, 390
128, 128
334, 334
200, 200
60, 60
106, 106
14, 14
46, 46
136, 136
102, 102
282, 282
276, 276
278, 278
292, 292
20, 20
182, 182
148, 148
336, 336
140, 140
330, 330
370, 370
26, 26
182, 182
362, 362
